\ENCODING=ISO-8859-1
\Problem name: 

Maximize
 obj: 4 x100001 + 8 x100002 + 8 x100003 + 2 x100004
Subject To
 c1: x100001 + x100002 + x100003 + x100004 + y1 >= 0
 c2: x100003 + x100004 + y2 >= 0
 c3: x100001 + x100002 + x100003 + x100004 + y3 >= 0
 c4: x100003 + x100004 + y4 >= 0
 c5: y1 + y2 + y3 + y4 <= 1
Bounds
 0 <= x100001 <= 1
 0 <= x100002 <= 1
 0 <= x100003 <= 1
 0 <= x100004 <= 1
 0 <= y1 <= 1
 0 <= y2 <= 1
 0 <= y3 <= 1
 0 <= y4 <= 1
Binaries
 x100001  x100002  x100003  x100004  y1  y2  y3  y4 
End
